minimize
obj: 1000 CPV + 150 _E_B + 182.5 P_G_plus_1_ + 182.5 P_G_plus_2_ + 182.5 P_G_plus_3_ + 182.5 P_G_plus_4_ + 182.5 P_G_plus_5_ + 182.5 P_G_plus_6_ + 182.5 P_G_plus_7_ + 182.5 P_G_plus_8_ + 182.5 P_G_plus_9_ + 182.5 P_G_plus_10_ + 182.5 P_G_plus_11_ + 182.5 P_G_plus_12_ + 182.5 P_G_plus_13_ + 182.5 P_G_plus_14_ + 182.5 P_G_plus_15_ + 182.5 P_G_plus_16_ + 182.5 P_G_plus_17_ + 182.5 P_G_plus_18_ + 182.5 P_G_plus_19_ + 182.5 P_G_plus_20_ + 182.5 P_G_plus_21_ + 182.5 P_G_plus_22_ + 182.5 P_G_plus_23_ + 182.5 P_G_plus_24_
subject to
c1_1: 1 P_PV_1_ <= 0
c2_1: 1 P_PV_2_ <= 0
c3_1: 1 P_PV_3_ <= 0
c4_1: 1 P_PV_4_ <= 0
c5_1: 1 P_PV_5_ <= 0
c6_1: 1 P_PV_6_ <= 0
c7_1: 1 P_PV_7_ <= 0
c8_1: 1 P_PV_8_ <= 0
c9_1: 1 P_PV_9_ <= 0
c10_1: -0.22102 CPV + 1 P_PV_10_ <= 0
c11_1: -0.42484 CPV + 1 P_PV_11_ <= 0
c12_1: -0.58308 CPV + 1 P_PV_12_ <= 0
c13_1: -0.67854 CPV + 1 P_PV_13_ <= 0
c14_1: -0.71466 CPV + 1 P_PV_14_ <= 0
c15_1: -0.68542 CPV + 1 P_PV_15_ <= 0
c16_1: -0.5762 CPV + 1 P_PV_16_ <= 0
c17_1: -0.41624 CPV + 1 P_PV_17_ <= 0
c18_1: -0.22188 CPV + 1 P_PV_18_ <= 0
c19_1: 1 P_PV_19_ <= 0
c20_1: 1 P_PV_20_ <= 0
c21_1: 1 P_PV_21_ <= 0
c22_1: 1 P_PV_22_ <= 0
c23_1: 1 P_PV_23_ <= 0
c24_1: 1 P_PV_24_ <= 0
c25_1: -1 SOC_1_ <= 0
c26_1: -1 _E_B + 1 SOC_1_ <= 0
c27_1: -1 SOC_2_ <= 0
c28_1: -1 _E_B + 1 SOC_2_ <= 0
c29_1: -1 SOC_3_ <= 0
c30_1: -1 _E_B + 1 SOC_3_ <= 0
c31_1: -1 SOC_4_ <= 0
c32_1: -1 _E_B + 1 SOC_4_ <= 0
c33_1: -1 SOC_5_ <= 0
c34_1: -1 _E_B + 1 SOC_5_ <= 0
c35_1: -1 SOC_6_ <= 0
c36_1: -1 _E_B + 1 SOC_6_ <= 0
c37_1: -1 SOC_7_ <= 0
c38_1: -1 _E_B + 1 SOC_7_ <= 0
c39_1: -1 SOC_8_ <= 0
c40_1: -1 _E_B + 1 SOC_8_ <= 0
c41_1: -1 SOC_9_ <= 0
c42_1: -1 _E_B + 1 SOC_9_ <= 0
c43_1: -1 SOC_10_ <= 0
c44_1: -1 _E_B + 1 SOC_10_ <= 0
c45_1: -1 SOC_11_ <= 0
c46_1: -1 _E_B + 1 SOC_11_ <= 0
c47_1: -1 SOC_12_ <= 0
c48_1: -1 _E_B + 1 SOC_12_ <= 0
c49_1: -1 SOC_13_ <= 0
c50: -1 _E_B + 1 SOC_13_ <= 0
c51: -1 SOC_14_ <= 0
c52: -1 _E_B + 1 SOC_14_ <= 0
c53: -1 SOC_15_ <= 0
c54: -1 _E_B + 1 SOC_15_ <= 0
c55: -1 SOC_16_ <= 0
c56: -1 _E_B + 1 SOC_16_ <= 0
c57: -1 SOC_17_ <= 0
c58: -1 _E_B + 1 SOC_17_ <= 0
c59: -1 SOC_18_ <= 0
c60: -1 _E_B + 1 SOC_18_ <= 0
c61: -1 SOC_19_ <= 0
c62: -1 _E_B + 1 SOC_19_ <= 0
c63: -1 SOC_20_ <= 0
c64: -1 _E_B + 1 SOC_20_ <= 0
c65: -1 SOC_21_ <= 0
c66: -1 _E_B + 1 SOC_21_ <= 0
c67: -1 SOC_22_ <= 0
c68: -1 _E_B + 1 SOC_22_ <= 0
c69: -1 SOC_23_ <= 0
c70: -1 _E_B + 1 SOC_23_ <= 0
c71: -1 SOC_24_ <= 0
c72: -1 _E_B + 1 SOC_24_ <= 0
c73: -1 SOC_25_ <= 0
c74: -1 _E_B + 1 SOC_25_ <= 0
c1: 1 P_PV_1_ - 1 P_B_ch_1_ + 1 P_B_dis_1_ + 1 P_G_plus_1_ - 1 P_G_minus_1_ = 0.12
c2: 1 P_PV_2_ - 1 P_B_ch_2_ + 1 P_B_dis_2_ + 1 P_G_plus_2_ - 1 P_G_minus_2_ = 0.14
c3: 1 P_PV_3_ - 1 P_B_ch_3_ + 1 P_B_dis_3_ + 1 P_G_plus_3_ - 1 P_G_minus_3_ = 0.16
c4: 1 P_PV_4_ - 1 P_B_ch_4_ + 1 P_B_dis_4_ + 1 P_G_plus_4_ - 1 P_G_minus_4_ = 0.2
c5: 1 P_PV_5_ - 1 P_B_ch_5_ + 1 P_B_dis_5_ + 1 P_G_plus_5_ - 1 P_G_minus_5_ = 0.28
c6: 1 P_PV_6_ - 1 P_B_ch_6_ + 1 P_B_dis_6_ + 1 P_G_plus_6_ - 1 P_G_minus_6_ = 0.36
c7: 1 P_PV_7_ - 1 P_B_ch_7_ + 1 P_B_dis_7_ + 1 P_G_plus_7_ - 1 P_G_minus_7_ = 0.44
c8: 1 P_PV_8_ - 1 P_B_ch_8_ + 1 P_B_dis_8_ + 1 P_G_plus_8_ - 1 P_G_minus_8_ = 0.52
c9: 1 P_PV_9_ - 1 P_B_ch_9_ + 1 P_B_dis_9_ + 1 P_G_plus_9_ - 1 P_G_minus_9_ = 0.48
c10: 1 P_PV_10_ - 1 P_B_ch_10_ + 1 P_B_dis_10_ + 1 P_G_plus_10_ - 1 P_G_minus_10_ = 0.4
c11: 1 P_PV_11_ - 1 P_B_ch_11_ + 1 P_B_dis_11_ + 1 P_G_plus_11_ - 1 P_G_minus_11_ = 0.36
c12: 1 P_PV_12_ - 1 P_B_ch_12_ + 1 P_B_dis_12_ + 1 P_G_plus_12_ - 1 P_G_minus_12_ = 0.34
c13: 1 P_PV_13_ - 1 P_B_ch_13_ + 1 P_B_dis_13_ + 1 P_G_plus_13_ - 1 P_G_minus_13_ = 0.34
c14: 1 P_PV_14_ - 1 P_B_ch_14_ + 1 P_B_dis_14_ + 1 P_G_plus_14_ - 1 P_G_minus_14_ = 0.36
c15: 1 P_PV_15_ - 1 P_B_ch_15_ + 1 P_B_dis_15_ + 1 P_G_plus_15_ - 1 P_G_minus_15_ = 0.4
c16: 1 P_PV_16_ - 1 P_B_ch_16_ + 1 P_B_dis_16_ + 1 P_G_plus_16_ - 1 P_G_minus_16_ = 0.44
c17: 1 P_PV_17_ - 1 P_B_ch_17_ + 1 P_B_dis_17_ + 1 P_G_plus_17_ - 1 P_G_minus_17_ = 0.48
c18: 1 P_PV_18_ - 1 P_B_ch_18_ + 1 P_B_dis_18_ + 1 P_G_plus_18_ - 1 P_G_minus_18_ = 0.56
c19: 1 P_PV_19_ - 1 P_B_ch_19_ + 1 P_B_dis_19_ + 1 P_G_plus_19_ - 1 P_G_minus_19_ = 0.64
c20: 1 P_PV_20_ - 1 P_B_ch_20_ + 1 P_B_dis_20_ + 1 P_G_plus_20_ - 1 P_G_minus_20_ = 0.72
c21: 1 P_PV_21_ - 1 P_B_ch_21_ + 1 P_B_dis_21_ + 1 P_G_plus_21_ - 1 P_G_minus_21_ = 0.68
c22: 1 P_PV_22_ - 1 P_B_ch_22_ + 1 P_B_dis_22_ + 1 P_G_plus_22_ - 1 P_G_minus_22_ = 0.56
c23: 1 P_PV_23_ - 1 P_B_ch_23_ + 1 P_B_dis_23_ + 1 P_G_plus_23_ - 1 P_G_minus_23_ = 0.36
c24: 1 P_PV_24_ - 1 P_B_ch_24_ + 1 P_B_dis_24_ + 1 P_G_plus_24_ - 1 P_G_minus_24_ = 0.12
c25: -0.95 P_B_ch_1_ + 1.0526315789473684 P_B_dis_1_ - 1 SOC_1_ + 1 SOC_2_ = 0
c26: -0.95 P_B_ch_2_ + 1.0526315789473684 P_B_dis_2_ - 1 SOC_2_ + 1 SOC_3_ = 0
c27: -0.95 P_B_ch_3_ + 1.0526315789473684 P_B_dis_3_ - 1 SOC_3_ + 1 SOC_4_ = 0
c28: -0.95 P_B_ch_4_ + 1.0526315789473684 P_B_dis_4_ - 1 SOC_4_ + 1 SOC_5_ = 0
c29: -0.95 P_B_ch_5_ + 1.0526315789473684 P_B_dis_5_ - 1 SOC_5_ + 1 SOC_6_ = 0
c30: -0.95 P_B_ch_6_ + 1.0526315789473684 P_B_dis_6_ - 1 SOC_6_ + 1 SOC_7_ = 0
c31: -0.95 P_B_ch_7_ + 1.0526315789473684 P_B_dis_7_ - 1 SOC_7_ + 1 SOC_8_ = 0
c32: -0.95 P_B_ch_8_ + 1.0526315789473684 P_B_dis_8_ - 1 SOC_8_ + 1 SOC_9_ = 0
c33: -0.95 P_B_ch_9_ + 1.0526315789473684 P_B_dis_9_ - 1 SOC_9_ + 1 SOC_10_ = 0
c34: -0.95 P_B_ch_10_ + 1.0526315789473684 P_B_dis_10_ - 1 SOC_10_ + 1 SOC_11_ = 0
c35: -0.95 P_B_ch_11_ + 1.0526315789473684 P_B_dis_11_ - 1 SOC_11_ + 1 SOC_12_ = 0
c36: -0.95 P_B_ch_12_ + 1.0526315789473684 P_B_dis_12_ - 1 SOC_12_ + 1 SOC_13_ = 0
c37: -0.95 P_B_ch_13_ + 1.0526315789473684 P_B_dis_13_ - 1 SOC_13_ + 1 SOC_14_ = 0
c38: -0.95 P_B_ch_14_ + 1.0526315789473684 P_B_dis_14_ - 1 SOC_14_ + 1 SOC_15_ = 0
c39: -0.95 P_B_ch_15_ + 1.0526315789473684 P_B_dis_15_ - 1 SOC_15_ + 1 SOC_16_ = 0
c40: -0.95 P_B_ch_16_ + 1.0526315789473684 P_B_dis_16_ - 1 SOC_16_ + 1 SOC_17_ = 0
c41: -0.95 P_B_ch_17_ + 1.0526315789473684 P_B_dis_17_ - 1 SOC_17_ + 1 SOC_18_ = 0
c42: -0.95 P_B_ch_18_ + 1.0526315789473684 P_B_dis_18_ - 1 SOC_18_ + 1 SOC_19_ = 0
c43: -0.95 P_B_ch_19_ + 1.0526315789473684 P_B_dis_19_ - 1 SOC_19_ + 1 SOC_20_ = 0
c44: -0.95 P_B_ch_20_ + 1.0526315789473684 P_B_dis_20_ - 1 SOC_20_ + 1 SOC_21_ = 0
c45: -0.95 P_B_ch_21_ + 1.0526315789473684 P_B_dis_21_ - 1 SOC_21_ + 1 SOC_22_ = 0
c46: -0.95 P_B_ch_22_ + 1.0526315789473684 P_B_dis_22_ - 1 SOC_22_ + 1 SOC_23_ = 0
c47: -0.95 P_B_ch_23_ + 1.0526315789473684 P_B_dis_23_ - 1 SOC_23_ + 1 SOC_24_ = 0
c48: -0.95 P_B_ch_24_ + 1.0526315789473684 P_B_dis_24_ - 1 SOC_24_ + 1 SOC_25_ = 0
c49: 1 SOC_1_ - 1 SOC_25_ = 0
Bounds
CPV >= 0
_E_B >= 0
P_PV_1_ >= 0
P_PV_2_ >= 0
P_PV_3_ >= 0
P_PV_4_ >= 0
P_PV_5_ >= 0
P_PV_6_ >= 0
P_PV_7_ >= 0
P_PV_8_ >= 0
P_PV_9_ >= 0
P_PV_10_ >= 0
P_PV_11_ >= 0
P_PV_12_ >= 0
P_PV_13_ >= 0
P_PV_14_ >= 0
P_PV_15_ >= 0
P_PV_16_ >= 0
P_PV_17_ >= 0
P_PV_18_ >= 0
P_PV_19_ >= 0
P_PV_20_ >= 0
P_PV_21_ >= 0
P_PV_22_ >= 0
P_PV_23_ >= 0
P_PV_24_ >= 0
P_B_ch_1_ >= 0
P_B_ch_2_ >= 0
P_B_ch_3_ >= 0
P_B_ch_4_ >= 0
P_B_ch_5_ >= 0
P_B_ch_6_ >= 0
P_B_ch_7_ >= 0
P_B_ch_8_ >= 0
P_B_ch_9_ >= 0
P_B_ch_10_ >= 0
P_B_ch_11_ >= 0
P_B_ch_12_ >= 0
P_B_ch_13_ >= 0
P_B_ch_14_ >= 0
P_B_ch_15_ >= 0
P_B_ch_16_ >= 0
P_B_ch_17_ >= 0
P_B_ch_18_ >= 0
P_B_ch_19_ >= 0
P_B_ch_20_ >= 0
P_B_ch_21_ >= 0
P_B_ch_22_ >= 0
P_B_ch_23_ >= 0
P_B_ch_24_ >= 0
P_B_dis_1_ >= 0
P_B_dis_2_ >= 0
P_B_dis_3_ >= 0
P_B_dis_4_ >= 0
P_B_dis_5_ >= 0
P_B_dis_6_ >= 0
P_B_dis_7_ >= 0
P_B_dis_8_ >= 0
P_B_dis_9_ >= 0
P_B_dis_10_ >= 0
P_B_dis_11_ >= 0
P_B_dis_12_ >= 0
P_B_dis_13_ >= 0
P_B_dis_14_ >= 0
P_B_dis_15_ >= 0
P_B_dis_16_ >= 0
P_B_dis_17_ >= 0
P_B_dis_18_ >= 0
P_B_dis_19_ >= 0
P_B_dis_20_ >= 0
P_B_dis_21_ >= 0
P_B_dis_22_ >= 0
P_B_dis_23_ >= 0
P_B_dis_24_ >= 0
SOC_1_ >= 0
SOC_2_ >= 0
SOC_3_ >= 0
SOC_4_ >= 0
SOC_5_ >= 0
SOC_6_ >= 0
SOC_7_ >= 0
SOC_8_ >= 0
SOC_9_ >= 0
SOC_10_ >= 0
SOC_11_ >= 0
SOC_12_ >= 0
SOC_13_ >= 0
SOC_14_ >= 0
SOC_15_ >= 0
SOC_16_ >= 0
SOC_17_ >= 0
SOC_18_ >= 0
SOC_19_ >= 0
SOC_20_ >= 0
SOC_21_ >= 0
SOC_22_ >= 0
SOC_23_ >= 0
SOC_24_ >= 0
SOC_25_ >= 0
P_G_plus_1_ >= 0
P_G_plus_2_ >= 0
P_G_plus_3_ >= 0
P_G_plus_4_ >= 0
P_G_plus_5_ >= 0
P_G_plus_6_ >= 0
P_G_plus_7_ >= 0
P_G_plus_8_ >= 0
P_G_plus_9_ >= 0
P_G_plus_10_ >= 0
P_G_plus_11_ >= 0
P_G_plus_12_ >= 0
P_G_plus_13_ >= 0
P_G_plus_14_ >= 0
P_G_plus_15_ >= 0
P_G_plus_16_ >= 0
P_G_plus_17_ >= 0
P_G_plus_18_ >= 0
P_G_plus_19_ >= 0
P_G_plus_20_ >= 0
P_G_plus_21_ >= 0
P_G_plus_22_ >= 0
P_G_plus_23_ >= 0
P_G_plus_24_ >= 0
P_G_minus_1_ >= 0
P_G_minus_2_ >= 0
P_G_minus_3_ >= 0
P_G_minus_4_ >= 0
P_G_minus_5_ >= 0
P_G_minus_6_ >= 0
P_G_minus_7_ >= 0
P_G_minus_8_ >= 0
P_G_minus_9_ >= 0
P_G_minus_10_ >= 0
P_G_minus_11_ >= 0
P_G_minus_12_ >= 0
P_G_minus_13_ >= 0
P_G_minus_14_ >= 0
P_G_minus_15_ >= 0
P_G_minus_16_ >= 0
P_G_minus_17_ >= 0
P_G_minus_18_ >= 0
P_G_minus_19_ >= 0
P_G_minus_20_ >= 0
P_G_minus_21_ >= 0
P_G_minus_22_ >= 0
P_G_minus_23_ >= 0
P_G_minus_24_ >= 0
End
